32	0

0	1	2
1	1	3
9	1	4
8	1	5
7	1	6
8	1	7
5	1	8
7	1	9
1	1	10
4	1	11
9	1	12
4	1	13
4	1	14
10	1	15
2	1	16
6	1	17
8	1	18
7	1	19
7	1	20
6	1	21
5	1	22
3	1	23
5	1	24
7	1	25
10	1	26
4	1	27
8	1	28
8	1	29
3	1	30
1	1	31
6	1	32
0	0
